p cnf 201 632
a 53 54 61 60 56 57 58 59 31 32 0
e 26 52 19 7 24 27 12 23 28 11 10 9 8 6 5 1 2 3 4 0
a 13 14 0
e 25 51 15 55 18 20 21 22 0
a 29 30 43 42 38 39 40 41 0
e 62 44 16 17 64 65 66 67 68 69 70 71 72 73 74 75 76 77 78 79 80 81 82 83 84 85 86 87 88 89 90 91 92 93 94 95 96 97 98 99 100 101 102 103 104 105 106 107 108 109 110 111 112 113 114 115 116 117 118 119 120 121 122 123 124 125 126 127 128 129 130 131 132 133 134 135 136 137 138 139 140 141 142 143 144 145 146 147 148 149 150 151 152 153 154 155 156 157 158 159 160 161 162 163 164 165 166 167 168 169 170 171 172 173 174 175 176 177 178 179 180 181 182 183 184 185 186 187 188 189 190 191 192 193 194 195 196 197 198 199 200 201 0
d 63 31 32 29 30 0
d 33 31 32 29 30 0
d 34 31 32 29 30 0
d 35 31 32 29 30 0
d 36 31 32 29 30 0
d 37 31 32 29 30 0
d 50 13 14 43 42 38 39 40 41 29 30 0
d 49 13 14 43 42 38 39 40 41 29 30 0
d 45 13 14 43 42 38 39 40 41 29 30 0
d 46 13 14 43 42 38 39 40 41 29 30 0
d 47 13 14 43 42 38 39 40 41 29 30 0
d 48 13 14 43 42 38 39 40 41 29 30 0
-37 -9 49 44 0
-10 -37 50 44 0
-18 -37 44 45 0
46 -37 44 -20 0
-37 44 47 -21 0
-37 48 -22 44 0
-45 -37 44 18 0
-46 -37 44 20 0
-37 21 44 -47 0
-37 44 22 -48 0
-37 -49 44 9 0
-37 -50 44 10 0
12 -15 0
-26 23 0
-19 11 0
28 -52 0
-25 24 0
27 -51 0
-45 1 55 62 63 0
-46 2 55 62 63 0
3 55 62 63 -47 0
55 4 62 63 -48 0
55 5 62 63 -49 0
55 6 62 63 -50 0
55 62 63 -1 45 0
46 55 62 63 -2 0
47 55 62 63 -3 0
48 55 62 63 -4 0
49 55 62 63 -5 0
50 55 62 63 -6 0
-32 -31 7 0
-32 -31 8 0
-2 31 32 0
-3 31 32 0
32 31 -4 0
-6 31 32 0
5 31 32 0
1 31 32 0
-16 66 0
-17 69 0
70 1 0
-1 -70 0
71 2 0
-2 -71 0
3 72 0
-3 -72 0
4 73 0
-73 -4 0
5 74 0
-74 -5 0
6 75 0
-75 -6 0
110 1 2 -4 -3 0
3 -110 0
4 -110 0
-1 -110 0
-2 -110 0
111 1 2 3 -4 0
4 -111 0
-1 -111 0
-2 -111 0
-3 -111 0
8 -4 0
4 -8 0
112 8 -6 0
6 -112 0
-8 -112 0
-8 113 -5 0
5 -113 0
-113 8 0
8 114 -5 0
5 -114 0
-114 -8 0
-8 -6 115 0
-115 6 0
-115 8 0
11 -5 0
-11 5 0
12 -6 0
6 -12 0
13 76 0
-76 -13 0
77 14 0
-77 -14 0
116 -14 8 -12 13 0
12 -116 0
-116 14 0
-116 -8 0
-116 -13 0
117 -106 108 0
-117 106 0
-117 -108 0
8 16 0
-16 -8 0
8 17 0
-17 -8 0
-1 118 -15 8 0
15 -118 0
1 -118 0
-8 -118 0
-15 -2 119 8 0
15 -119 0
-119 2 0
-8 -119 0
-3 -15 120 8 0
-120 15 0
3 -120 0
-8 -120 0
-15 121 8 -4 0
-121 15 0
4 -121 0
-8 -121 0
-19 -1 8 122 0
19 -122 0
-122 1 0
-122 -8 0
-19 -2 8 123 0
19 -123 0
-123 2 0
-123 -8 0
-19 8 -3 124 0
19 -124 0
3 -124 0
-124 -8 0
125 8 -19 -4 0
-125 19 0
-125 4 0
-125 -8 0
126 -1 -8 0
1 -126 0
8 -126 0
19 104 -102 0
-19 102 0
-19 -104 0
-15 -1 127 8 0
15 -127 0
1 -127 0
-8 -127 0
-19 -1 128 8 0
19 -128 0
-128 1 0
-8 -128 0
-26 -1 129 8 0
-129 26 0
-129 1 0
-8 -129 0
-1 -25 8 130 0
-130 25 0
-130 1 0
-130 -8 0
-2 -8 131 0
-131 2 0
-131 8 0
-2 -15 8 132 0
-132 15 0
-132 2 0
-132 -8 0
133 -2 8 -19 0
-133 19 0
-133 2 0
-133 -8 0
134 -26 -2 8 0
26 -134 0
2 -134 0
-8 -134 0
-2 135 8 -25 0
25 -135 0
-135 2 0
-8 -135 0
-3 136 -8 0
3 -136 0
8 -136 0
-3 -15 137 8 0
-137 15 0
3 -137 0
-8 -137 0
-19 8 138 -3 0
19 -138 0
3 -138 0
-138 -8 0
-3 -26 8 139 0
-139 26 0
3 -139 0
-139 -8 0
-3 -25 8 140 0
-140 25 0
3 -140 0
-140 -8 0
141 -8 -4 0
-141 4 0
-141 8 0
23 -5 0
5 -23 0
24 -6 0
6 -24 0
142 8 13 14 -24 0
24 -142 0
-8 -142 0
-14 -142 0
-13 -142 0
143 -106 107 0
106 -143 0
-107 -143 0
103 -102 26 0
-26 102 0
-26 -103 0
27 -5 0
-27 5 0
28 -6 0
6 -28 0
78 29 0
-29 -78 0
79 30 0
-30 -79 0
80 31 0
-31 -80 0
81 32 0
-32 -81 0
144 31 0
-31 -144 0
-29 145 0
29 -145 0
146 -34 0
34 -146 0
147 32 0
-32 -147 0
-30 148 0
-148 30 0
149 -29 31 0
-149 29 0
-149 -31 0
150 -31 29 0
31 -150 0
-29 -150 0
151 -30 32 0
30 -151 0
-32 -151 0
-32 152 30 0
-152 32 0
-30 -152 0
-35 153 0
-153 35 0
-35 154 31 -33 34 -29 0
-154 29 0
33 -154 0
-154 35 0
-154 -34 0
-31 -154 0
-36 155 -34 32 -30 35 0
-155 30 0
34 -155 0
-155 36 0
-155 -35 0
-32 -155 0
38 82 0
-38 -82 0
39 83 0
-83 -39 0
40 84 0
-84 -40 0
85 41 0
-85 -41 0
86 42 0
-42 -86 0
87 43 0
-43 -87 0
-38 1 156 0
38 -156 0
-156 -1 0
157 2 -39 0
-157 39 0
-157 -2 0
3 158 -40 0
40 -158 0
-3 -158 0
4 159 -41 0
41 -159 0
-159 -4 0
5 160 -42 0
42 -160 0
-160 -5 0
6 -43 161 0
-161 43 0
-161 -6 0
38 -1 162 0
-162 1 0
-38 -162 0
-2 163 39 0
-163 2 0
-163 -39 0
-3 40 164 0
3 -164 0
-164 -40 0
165 41 -4 0
-165 4 0
-165 -41 0
166 42 -5 0
5 -166 0
-42 -166 0
167 43 -6 0
6 -167 0
-43 -167 0
88 45 0
-45 -88 0
46 89 0
-46 -89 0
47 90 0
-90 -47 0
48 91 0
-91 -48 0
49 92 0
-92 -49 0
93 50 0
-93 -50 0
-13 8 14 -27 168 0
27 -168 0
13 -168 0
-8 -168 0
-14 -168 0
109 -106 169 0
-169 106 0
-109 -169 0
105 52 -102 0
102 -52 0
-52 -105 0
94 53 0
-53 -94 0
54 95 0
-54 -95 0
-53 13 170 0
-170 53 0
-170 -13 0
-54 14 171 0
54 -171 0
-171 -14 0
53 -13 172 0
-172 13 0
-172 -53 0
173 -14 54 0
-173 14 0
-173 -54 0
56 96 0
-96 -56 0
57 97 0
-97 -57 0
58 98 0
-98 -58 0
59 99 0
-99 -59 0
60 100 0
-100 -60 0
101 61 0
-101 -61 0
38 174 -56 0
56 -174 0
-38 -174 0
39 175 -57 0
57 -175 0
-175 -39 0
40 176 -58 0
58 -176 0
-176 -40 0
41 -59 177 0
-177 59 0
-177 -41 0
-60 42 178 0
-178 60 0
-178 -42 0
-61 43 179 0
-179 61 0
-179 -43 0
-38 56 180 0
38 -180 0
-180 -56 0
181 57 -39 0
-181 39 0
-181 -57 0
182 58 -40 0
40 -182 0
-58 -182 0
183 -41 59 0
41 -183 0
-59 -183 0
184 -42 60 0
42 -184 0
-60 -184 0
-43 185 61 0
-185 43 0
-61 -185 0
-31 29 186 0
-186 31 0
-186 -29 0
-32 30 187 0
-187 32 0
-187 -30 0
-29 31 188 0
-188 29 0
-188 -31 0
189 -30 32 0
-189 30 0
-189 -32 0
190 -26 0
26 -190 0
-19 191 0
19 -191 0
-52 192 0
-192 52 0
-19 -26 193 0
-193 26 0
19 -193 0
-26 -52 194 0
-194 26 0
-194 52 0
-19 -52 195 0
19 -195 0
-195 52 0
65 66 -64 0
64 -66 0
-66 -65 0
-25 196 0
-196 25 0
197 -15 0
-197 15 0
198 -51 0
51 -198 0
-15 199 -25 0
25 -199 0
15 -199 0
-25 200 -51 0
-200 25 0
-200 51 0
-15 -51 201 0
-201 15 0
-201 51 0
-67 68 69 0
-69 67 0
-69 -68 0
70 1 0
-1 -70 0
71 2 0
-2 -71 0
3 72 0
-3 -72 0
4 73 0
-73 -4 0
5 74 0
-74 -5 0
6 75 0
-75 -6 0
13 76 0
-76 -13 0
77 14 0
-77 -14 0
78 29 0
-29 -78 0
79 30 0
-30 -79 0
80 31 0
-31 -80 0
81 32 0
-32 -81 0
38 82 0
-38 -82 0
39 83 0
-83 -39 0
40 84 0
-84 -40 0
85 41 0
-85 -41 0
86 42 0
-42 -86 0
87 43 0
-43 -87 0
88 45 0
-45 -88 0
46 89 0
-46 -89 0
47 90 0
-90 -47 0
48 91 0
-91 -48 0
49 92 0
-92 -49 0
93 50 0
-93 -50 0
94 53 0
-53 -94 0
54 95 0
-54 -95 0
56 96 0
-96 -56 0
57 97 0
-97 -57 0
58 98 0
-98 -58 0
59 99 0
-99 -59 0
60 100 0
-100 -60 0
101 61 0
-101 -61 0
102 -16 0
16 -102 0
103 26 0
-26 -103 0
19 104 0
-19 -104 0
105 52 0
-52 -105 0
-17 106 0
-106 17 0
25 107 0
-107 -25 0
15 108 0
-108 -15 0
109 51 0
-109 -51 0
110 111 -7 0
7 -110 0
7 -111 0
-9 112 113 0
-112 9 0
-113 9 0
-10 114 115 0
-114 10 0
-115 10 0
117 -15 116 0
-116 15 0
-117 15 0
-18 118 119 120 121 122 123 124 125 126 0
-118 18 0
-119 18 0
-120 18 0
-121 18 0
-122 18 0
-123 18 0
-124 18 0
-125 18 0
-126 18 0
127 128 129 130 131 -20 0
20 -127 0
20 -128 0
20 -129 0
20 -130 0
20 -131 0
132 133 134 135 136 -21 0
-132 21 0
-133 21 0
21 -134 0
21 -135 0
21 -136 0
141 -22 137 138 139 140 0
22 -137 0
-138 22 0
-139 22 0
-140 22 0
-141 22 0
142 -25 143 0
25 -142 0
25 -143 0
-33 144 145 146 0
33 -144 0
33 -145 0
33 -146 0
148 147 -34 0
34 -147 0
34 -148 0
149 150 -35 0
-149 35 0
35 -150 0
152 -36 151 153 0
36 -151 0
-152 36 0
-153 36 0
-37 154 155 0
-154 37 0
-155 37 0
-44 156 157 158 159 160 161 162 163 164 165 166 167 0
-156 44 0
-157 44 0
44 -158 0
44 -159 0
-160 44 0
-161 44 0
-162 44 0
-163 44 0
-164 44 0
-165 44 0
44 -166 0
44 -167 0
168 -51 169 0
-168 51 0
-169 51 0
173 -55 170 171 172 0
55 -170 0
55 -171 0
55 -172 0
-173 55 0
174 175 176 177 178 179 180 181 182 183 184 185 -62 0
62 -174 0
62 -175 0
62 -176 0
62 -177 0
62 -178 0
62 -179 0
62 -180 0
62 -181 0
62 -182 0
62 -183 0
62 -184 0
62 -185 0
186 187 188 189 -63 0
63 -186 0
63 -187 0
63 -188 0
-189 63 0
190 191 192 -64 0
64 -190 0
64 -191 0
64 -192 0
194 193 -65 195 0
65 -193 0
65 -194 0
-195 65 0
197 198 -67 196 0
-196 67 0
-197 67 0
67 -198 0
-68 200 199 201 0
-199 68 0
-200 68 0
-201 68 0
